
Gurobi 9.0.1 (linux64) logging started Thu Apr 30 15:58:30 2020

Gurobi Optimizer version 9.0.1 build v9.0.1rc0 (linux64)
Optimize a model with 11327 rows, 12060 columns and 198990 nonzeros
Model fingerprint: 0x11d08a5b
Variable types: 0 continuous, 12060 integer (12032 binary)
Coefficient statistics:
  Matrix range     [1e+00, 1e+01]
  Objective range  [1e+00, 1e+02]
  Bounds range     [1e+00, 1e+00]
  RHS range        [1e+00, 1e+00]

User MIP start produced solution with objective 998 (0.25s)
Loaded user MIP start with objective 998

Presolve removed 928 rows and 1887 columns
Presolve time: 2.77s
Presolved: 10399 rows, 10173 columns, 162246 nonzeros
Variable types: 0 continuous, 10173 integer (10147 binary)

Root simplex log...

Iteration    Objective       Primal Inf.    Dual Inf.      Time
    3070    5.5116683e+02   1.906628e+03   0.000000e+00      5s
    5730    5.6822979e+02   4.465134e+03   0.000000e+00     10s
    8070    5.7262768e+02   7.590231e+02   0.000000e+00     15s
   10113    5.7312637e+02   3.343510e+02   0.000000e+00     20s
   11839    5.7342926e+02   6.114379e+01   0.000000e+00     25s
   13667    5.7346575e+02   3.219326e+01   0.000000e+00     30s
   13967    5.7346657e+02   0.000000e+00   0.000000e+00     31s

Root relaxation: objective 5.734666e+02, 13967 iterations, 27.85 seconds

    Nodes    |    Current Node    |     Objective Bounds      |     Work
 Expl Unexpl |  Obj  Depth IntInf | Incumbent    BestBd   Gap | It/Node Time

     0     0  573.46657    0 3098  998.00000  573.46657  42.5%     -   34s
     0     0  593.38468    0 3035  998.00000  593.38468  40.5%     -  110s
     0     0  594.75204    0 3063  998.00000  594.75204  40.4%     -  127s
     0     0  594.77632    0 3028  998.00000  594.77632  40.4%     -  141s
     0     0  594.77832    0 3029  998.00000  594.77832  40.4%     -  147s
     0     0  615.39115    0 2915  998.00000  615.39115  38.3%     -  288s
     0     0  615.45700    0 2939  998.00000  615.45700  38.3%     -  308s
     0     0  615.46349    0 2936  998.00000  615.46349  38.3%     -  319s
     0     0  619.70625    0 3074  998.00000  619.70625  37.9%     -  601s
     0     0  620.57043    0 3104  998.00000  620.57043  37.8%     -  711s
     0     0  620.61465    0 3095  998.00000  620.61465  37.8%     -  739s
     0     0  620.62296    0 3130  998.00000  620.62296  37.8%     -  752s
     0     0  624.03994    0 3174  998.00000  624.03994  37.5%     - 1081s
     0     0  624.29217    0 3154  998.00000  624.29217  37.4%     - 1158s
     0     0  624.36465    0 3109  998.00000  624.36465  37.4%     - 1200s
     0     0  624.37073    0 3105  998.00000  624.37073  37.4%     - 1220s
     0     0  625.35409    0 3315  998.00000  625.35409  37.3%     - 1429s
     0     0  625.53440    0 3336  998.00000  625.53440  37.3%     - 1488s
     0     0  625.54475    0 3345  998.00000  625.54475  37.3%     - 1513s
     0     0  626.45532    0 3269  998.00000  626.45532  37.2%     - 1634s
     0     0  626.51649    0 3261  998.00000  626.51649  37.2%     - 1683s
     0     0  626.52719    0 3297  998.00000  626.52719  37.2%     - 1711s
     0     0  627.23940    0 3244  998.00000  627.23940  37.2%     - 1911s
     0     0  627.27770    0 3199  998.00000  627.27770  37.1%     - 1990s
     0     0  627.28500    0 3199  998.00000  627.28500  37.1%     - 2009s
     0     0  627.75085    0 3233  998.00000  627.75085  37.1%     - 2135s
     0     0  627.93113    0 3251  998.00000  627.93113  37.1%     - 2211s
     0     0  627.94934    0 3258  998.00000  627.94934  37.1%     - 2250s
     0     0  628.13287    0 3292  998.00000  628.13287  37.1%     - 2329s
     0     0  628.14871    0 3314  998.00000  628.14871  37.1%     - 2363s
     0     0  628.20531    0 3298  998.00000  628.20531  37.1%     - 2438s
     0     0  628.20531    0 3276  998.00000  628.20531  37.1%     - 2454s
     0     2  628.20693    0 3264  998.00000  628.20693  37.1%     - 2638s
     1     3  630.15012    1 3269  998.00000  628.20693  37.1% 31102 2818s
     2     4  635.96886    1 3111  998.00000  630.15020  36.9% 45324 3156s

Cutting planes:
  Gomory: 2
  MIR: 57
  StrongCG: 3
  Zero half: 57
  RLT: 2040

Explored 3 nodes (522541 simplex iterations) in 3600.01 seconds
Thread count was 1 (of 40 available processors)

Solution count 1: 998 

Time limit reached
Best objective 9.980000000000e+02, best bound 6.310000000000e+02, gap 36.7735%

User-callback calls 4554, time in user-callback 0.01 sec
